c This is QMaxSAT 2017 based on 14.07
c This is Glucose 3.0
c This is MiniSat 2.2.0
c WARNING: for repeatability, setting FPU to use double precision
c card = mrwto, comp = 0, pmodel = 0, narr = 5, mct = 24, verb = 0
cr firstCPXsol 0 0 0
c top = 81479
c |  Number of variables:    1742531                                          |
c |  Number of clauses:      91064554                                         |
c |  Weight of hard clauses: 81479                                            |
c |  Number of soft clauses: 2760                                             |
c |  Number of unit soft clauses: 2760                                        |
c |  Maximum Cardinality (by unit): 407390       (407390      )               |
c last restart ## conflicts  :  38 194799 
o 1070 | cpuTime 12.8774 s
c Sum of weights = 81478
c A number of soft clauses remained = 552
c MRWTO encoding for Pseudo-Boolean Constraints
c sizeMax=1070
c No.0 Divisor=11	generated by pow1
c No.1 Divisor=11	generated by pow1
c No.2 Divisor=11	generated by pow1
c p0= 11	p1= 11	p2= 11	
c number of digits = 4
c linkingVar[0].size = 11, linkingVar[1].size = 11, linkingVar[2].size = 9, linkingVar[3].size = 1, 
c Pseudo-Boolean Constraints: 11483 variables and 101479 clauses
c Sum of weights = 81478
c A number of soft clauses remained = 552
c MRWTO encoding for Pseudo-Boolean Constraints
c sizeMax=1070
c No.0 Divisor=11	generated by pow1
c No.1 Divisor=11	generated by pow1
c No.2 Divisor=11	generated by pow1
c p0= 11	p1= 11	p2= 11	
c number of digits = 4
c linkingVar[0].size = 11, linkingVar[1].size = 11, linkingVar[2].size = 9, linkingVar[3].size = 1, 
c Pseudo-Boolean Constraints: 11483 variables and 101479 clauses
c Sum of weights = 81478
c A number of soft clauses remained = 552
c MRWTO encoding for Pseudo-Boolean Constraints
c sizeMax=1070
c No.0 Divisor=11	generated by pow1
c No.1 Divisor=11	generated by pow1
c No.2 Divisor=11	generated by pow1
c p0= 11	p1= 11	p2= 11	
c number of digits = 4
c linkingVar[0].size = 11, linkingVar[1].size = 11, linkingVar[2].size = 9, linkingVar[3].size = 1, 
c Pseudo-Boolean Constraints: 11483 variables and 101479 clauses
c Sum of weights = 81478
c A number of soft clauses remained = 552
c MRWTO encoding for Pseudo-Boolean Constraints
c sizeMax=1070
c No.0 Divisor=11	generated by pow1
c No.1 Divisor=11	generated by pow1
c No.2 Divisor=11	generated by pow1
c p0= 11	p1= 11	p2= 11	
c number of digits = 4
c linkingVar[0].size = 11, linkingVar[1].size = 11, linkingVar[2].size = 9, linkingVar[3].size = 1, 
c Pseudo-Boolean Constraints: 11483 variables and 101479 clauses
c Sum of weights = 81478
c A number of soft clauses remained = 552
c MRWTO encoding for Pseudo-Boolean Constraints
c sizeMax=1070
c No.0 Divisor=11	generated by pow1
c No.1 Divisor=11	generated by pow1
c No.2 Divisor=11	generated by pow1
c p0= 11	p1= 11	p2= 11	
c number of digits = 4
c linkingVar[0].size = 11, linkingVar[1].size = 11, linkingVar[2].size = 9, linkingVar[3].size = 1, 
c Pseudo-Boolean Constraints: 11483 variables and 101479 clauses
c last restart ## conflicts  :  2 209784 
o 1020 | cpuTime 70.1373 s
c last restart ## conflicts  :  445 203958 
o 915 | cpuTime 158.876 s
c last restart ## conflicts  :  1128 201971 
o 870 | cpuTime 344.06 s
c last restart ## conflicts  :  92 199681 
o 814 | cpuTime 411.356 s
c last restart ## conflicts  :  119 202324 
o 812 | cpuTime 486.592 s
c last restart ## conflicts  :  509 210081 
o 789 | cpuTime 643.35 s
c last restart ## conflicts  :  213 202258 
o 756 | cpuTime 897.29 s
c last restart ## conflicts  :  74 193950 
o 700 | cpuTime 923.361 s
c last restart ## conflicts  :  210 213040 
o 681 | cpuTime 1518.51 s
c last restart ## conflicts  :  51 206777 
o 679 | cpuTime 1519.15 s
c last restart ## conflicts  :  153 206354 
o 677 | cpuTime 2364.53 s
c last restart ## conflicts  :  584 213366 
o 670 | cpuTime 2877.65 s
s UNKNOWN
c Search is stopped by a limit (maybe time-limit)
cr positiVarArr: [ | 21@1(1->21) | 49@1(3->1) | 243@1(11->3) | 502@1(21->22) | 515@1(22->11) | 592@2(1->16) | 673@2(5->1) | 704@2(6->8) | 754@2(8->10) | 809@2(10->17) | 942@2(16->6) | 979@2(17->19) | 989@2(18->5) | 1026@2(19->18) | 1156@3(1->4) | 1238@3(4->14) | 1479@3(14->15) | 1489@3(15->1) | 1751@4(1->23) | 1921@4(9->1) | 2025@4(13->9) | 2269@4(23->13) | 2316@5(1->12) | 2335@5(2->7) | 2449@5(7->1) | 2592@5(12->24) | 2762@5(20->2) | 2876@5(24->20) | ]
cr the 1-th chain: [ 1->21->22->11->3->1 ] (#non-depot=4) {#cumul.=5}
cr the 2-th chain: [ 1->16->6->8->10->17->19->18->5->1 ] (#non-depot=8) {#cumul.=13}
cr the 3-th chain: [ 1->4->14->15->1 ] (#non-depot=3) {#cumul.=16}
cr the 4-th chain: [ 1->23->13->9->1 ] (#non-depot=3) {#cumul.=19}
cr the 5-th chain: [ 1->12->24->20->2->7->1 ] (#non-depot=5) {#cumul.=24}
c Latest Answer = 0 by 13 loops
c restarts              : 32853
c conflicts             : 4571641        (1272 /sec)
c decisions             : 36798624       (0.00 % random) (10235 /sec)
c propagations          : 19458231996    (5411995 /sec)
c conflict literals     : 763915946      (28.51 % deleted)
c Memory used           : 9420.00 MB
c CPU time              : 3595.39 s
